(set-info :smt-lib-version 2.6)
(set-logic QF_NIA)
(set-info :source |
Generated by: Cristina Borralleras, Daniel Larraz, Albert Oliveras, Enric Rodriguez-Carbonell, Albert Rubio
Generated on: 2017-04-27
Generator: VeryMax
Application: Termination proving
Target solver: barcelogic
|)
(set-info :license "https://creativecommons.org/licenses/by/4.0/")
(set-info :category "industrial")
(set-info :status unknown)
(declare-fun Nl11main_i1 () Int)
(declare-fun Nl11main_j1 () Int)
(declare-fun Nl11main_k1 () Int)
(declare-fun Nl11main_l1 () Int)
(declare-fun Nl11main_a1 () Int)
(declare-fun Nl11main_b1 () Int)
(declare-fun Nl11main_i2 () Int)
(declare-fun Nl11main_j2 () Int)
(declare-fun Nl11main_k2 () Int)
(declare-fun Nl11main_l2 () Int)
(declare-fun Nl11main_a2 () Int)
(declare-fun Nl11main_b2 () Int)
(declare-fun Nl11main_i3 () Int)
(declare-fun Nl11main_j3 () Int)
(declare-fun Nl11main_k3 () Int)
(declare-fun Nl11main_l3 () Int)
(declare-fun Nl11main_a3 () Int)
(declare-fun Nl11main_b3 () Int)
(declare-fun lam0n0 () Int)
(declare-fun lam0n1 () Int)
(declare-fun lam0n2 () Int)
(declare-fun lam0n3 () Int)
(declare-fun Nl11CT1 () Int)
(declare-fun lam1n0 () Int)
(declare-fun lam1n1 () Int)
(declare-fun lam1n2 () Int)
(declare-fun lam1n3 () Int)
(declare-fun Nl11CT2 () Int)
(declare-fun lam2n0 () Int)
(declare-fun lam2n1 () Int)
(declare-fun lam2n2 () Int)
(declare-fun lam2n3 () Int)
(declare-fun Nl11CT3 () Int)
(declare-fun main_i () Int)
(declare-fun main_j () Int)
(declare-fun main_a () Int)
(declare-fun lam3n0 () Int)
(declare-fun lam3n1 () Int)
(declare-fun lam3n2 () Int)
(declare-fun lam3n3 () Int)
(declare-fun lam3n4 () Int)
(declare-fun lam3n5 () Int)
(declare-fun lam4n0 () Int)
(declare-fun lam4n1 () Int)
(declare-fun lam4n2 () Int)
(declare-fun lam4n3 () Int)
(declare-fun lam4n4 () Int)
(declare-fun lam4n5 () Int)
(assert ( and ( <= ( - 1 ) Nl11main_i1 ) ( <= Nl11main_i1 1 ) ( <= ( - 1 ) Nl11main_j1 ) ( <= Nl11main_j1 1 ) ( <= ( - 1 ) Nl11main_k1 ) ( <= Nl11main_k1 1 ) ( <= ( - 1 ) Nl11main_l1 ) ( <= Nl11main_l1 1 ) ( <= ( - 1 ) Nl11main_a1 ) ( <= Nl11main_a1 1 ) ( <= ( - 1 ) Nl11main_b1 ) ( <= Nl11main_b1 1 ) ( <= ( - 1 ) Nl11main_i2 ) ( <= Nl11main_i2 1 ) ( <= ( - 1 ) Nl11main_j2 ) ( <= Nl11main_j2 1 ) ( <= ( - 1 ) Nl11main_k2 ) ( <= Nl11main_k2 1 ) ( <= ( - 1 ) Nl11main_l2 ) ( <= Nl11main_l2 1 ) ( <= ( - 1 ) Nl11main_a2 ) ( <= Nl11main_a2 1 ) ( <= ( - 1 ) Nl11main_b2 ) ( <= Nl11main_b2 1 ) ( <= ( - 1 ) Nl11main_i3 ) ( <= Nl11main_i3 1 ) ( <= ( - 1 ) Nl11main_j3 ) ( <= Nl11main_j3 1 ) ( <= ( - 1 ) Nl11main_k3 ) ( <= Nl11main_k3 1 ) ( <= ( - 1 ) Nl11main_l3 ) ( <= Nl11main_l3 1 ) ( <= ( - 1 ) Nl11main_a3 ) ( <= Nl11main_a3 1 ) ( <= ( - 1 ) Nl11main_b3 ) ( <= Nl11main_b3 1 ) ))
(assert ( and ( <= ( + 1 main_i ( * ( - 1 ) main_j ) ( * ( - 1 ) main_a ) ) 0 ) ( <= ( + 1 main_j ( * ( - 1 ) main_a ) ) 0 ) ( <= ( + ( - 3 ) ( * ( - 1 ) main_i ) ( * ( - 1 ) main_j ) ) 0 ) ( <= ( + ( - 2 ) ( * ( - 1 ) main_i ) main_a ) 0 ) ( <= ( + ( + ( + ( + Nl11CT1 ( * Nl11main_k1 3 ) ) ( * Nl11main_l1 0 ) ) ( * Nl11main_b1 7 ) ) ( * ( + ( + ( + 0 Nl11main_i1 ) ( * Nl11main_k1 1 ) ) ( * Nl11main_b1 2 ) ) main_i ) ( * ( + ( + ( + 0 Nl11main_j1 ) ( * Nl11main_k1 1 ) ) ( * Nl11main_b1 2 ) ) main_j ) ( * ( + 0 Nl11main_a1 ) main_a ) ) 0 ) ( <= ( + ( + ( + ( + Nl11CT2 ( * Nl11main_k2 3 ) ) ( * Nl11main_l2 0 ) ) ( * Nl11main_b2 7 ) ) ( * ( + ( + ( + 0 Nl11main_i2 ) ( * Nl11main_k2 1 ) ) ( * Nl11main_b2 2 ) ) main_i ) ( * ( + ( + ( + 0 Nl11main_j2 ) ( * Nl11main_k2 1 ) ) ( * Nl11main_b2 2 ) ) main_j ) ( * ( + 0 Nl11main_a2 ) main_a ) ) 0 ) ( <= ( + ( + ( + ( + Nl11CT3 ( * Nl11main_k3 3 ) ) ( * Nl11main_l3 0 ) ) ( * Nl11main_b3 7 ) ) ( * ( + ( + ( + 0 Nl11main_i3 ) ( * Nl11main_k3 1 ) ) ( * Nl11main_b3 2 ) ) main_i ) ( * ( + ( + ( + 0 Nl11main_j3 ) ( * Nl11main_k3 1 ) ) ( * Nl11main_b3 2 ) ) main_j ) ( * ( + 0 Nl11main_a3 ) main_a ) ) 0 ) ))
(assert ( or ( or ( and ( >= lam3n0 0 ) ( >= lam3n1 0 ) ( >= lam3n2 0 ) ( >= lam3n3 0 ) ( >= lam3n4 0 ) ( >= lam3n5 0 ) ( > ( + ( * 1 lam3n0 ) ( * ( - 1 ) lam3n1 ) ( * ( - 4 ) lam3n2 ) ( * Nl11CT1 lam3n3 ) ( * Nl11CT2 lam3n4 ) ( * Nl11CT3 lam3n5 ) ( - 1 ) ) 0 ) ( = ( + ( * ( - 1 ) lam3n2 ) ( * Nl11main_i1 lam3n3 ) ( * Nl11main_i2 lam3n4 ) ( * Nl11main_i3 lam3n5 ) ) 0 ) ( = ( + ( * ( - 1 ) lam3n2 ) ( * Nl11main_j1 lam3n3 ) ( * Nl11main_j2 lam3n4 ) ( * Nl11main_j3 lam3n5 ) ) 0 ) ( = ( + ( * ( - 1 ) lam3n2 ) ( * Nl11main_k1 lam3n3 ) ( * Nl11main_k2 lam3n4 ) ( * Nl11main_k3 lam3n5 ) ) 0 ) ( = ( + ( * 1 lam3n0 ) ( * 1 lam3n1 ) ( * ( - 2 ) lam3n2 ) ( * Nl11main_l1 lam3n3 ) ( * Nl11main_l2 lam3n4 ) ( * Nl11main_l3 lam3n5 ) ) 0 ) ( = ( + ( * ( - 1 ) lam3n1 ) ( * Nl11main_a1 lam3n3 ) ( * Nl11main_a2 lam3n4 ) ( * Nl11main_a3 lam3n5 ) ) 0 ) ( = ( + ( * ( - 1 ) lam3n0 ) ( * ( - 1 ) lam3n1 ) ( * 1 lam3n2 ) ( * Nl11main_b1 lam3n3 ) ( * Nl11main_b2 lam3n4 ) ( * Nl11main_b3 lam3n5 ) ) 0 ) ) ( and ( >= lam4n0 0 ) ( >= lam4n1 0 ) ( >= lam4n2 0 ) ( >= lam4n3 0 ) ( >= lam4n4 0 ) ( >= lam4n5 0 ) ( > ( + ( * 1 lam4n0 ) ( * ( - 1 ) lam4n1 ) ( * ( - 4 ) lam4n2 ) ( * Nl11CT1 lam4n3 ) ( * Nl11CT2 lam4n4 ) ( * Nl11CT3 lam4n5 ) ( - 1000 ) ) 0 ) ( = ( + ( * ( - 1 ) lam4n2 ) ( * Nl11main_i1 lam4n3 ) ( * Nl11main_i2 lam4n4 ) ( * Nl11main_i3 lam4n5 ) ( - 1 ) ) 0 ) ( = ( + ( * ( - 1 ) lam4n2 ) ( * Nl11main_j1 lam4n3 ) ( * Nl11main_j2 lam4n4 ) ( * Nl11main_j3 lam4n5 ) ( - 1 ) ) 0 ) ( = ( + ( * ( - 1 ) lam4n2 ) ( * Nl11main_k1 lam4n3 ) ( * Nl11main_k2 lam4n4 ) ( * Nl11main_k3 lam4n5 ) ( - 1 ) ) 0 ) ( = ( + ( * 1 lam4n0 ) ( * 1 lam4n1 ) ( * ( - 2 ) lam4n2 ) ( * Nl11main_l1 lam4n3 ) ( * Nl11main_l2 lam4n4 ) ( * Nl11main_l3 lam4n5 ) ( - 1 ) ) 0 ) ( = ( + ( * ( - 1 ) lam4n1 ) ( * Nl11main_a1 lam4n3 ) ( * Nl11main_a2 lam4n4 ) ( * Nl11main_a3 lam4n5 ) ) 0 ) ( = ( + ( * ( - 1 ) lam4n0 ) ( * ( - 1 ) lam4n1 ) ( * 1 lam4n2 ) ( * Nl11main_b1 lam4n3 ) ( * Nl11main_b2 lam4n4 ) ( * Nl11main_b3 lam4n5 ) ) 0 ) ) ) ( and ( and ( <= ( + 1 main_i ( * ( - 1 ) main_j ) ( * ( - 1 ) main_a ) ) 0 ) ( <= ( + 1 main_j ( * ( - 1 ) main_a ) ) 0 ) ( <= ( + ( - 3 ) ( * ( - 1 ) main_i ) ( * ( - 1 ) main_j ) ) 0 ) ( <= ( + ( - 2 ) ( * ( - 1 ) main_i ) main_a ) 0 ) ( <= ( + ( + ( + ( + Nl11CT1 ( * Nl11main_k1 3 ) ) ( * Nl11main_l1 0 ) ) ( * Nl11main_b1 7 ) ) ( * ( + ( + ( + 0 Nl11main_i1 ) ( * Nl11main_k1 1 ) ) ( * Nl11main_b1 2 ) ) main_i ) ( * ( + ( + ( + 0 Nl11main_j1 ) ( * Nl11main_k1 1 ) ) ( * Nl11main_b1 2 ) ) main_j ) ( * ( + 0 Nl11main_a1 ) main_a ) ) 0 ) ( <= ( + ( + ( + ( + Nl11CT2 ( * Nl11main_k2 3 ) ) ( * Nl11main_l2 0 ) ) ( * Nl11main_b2 7 ) ) ( * ( + ( + ( + 0 Nl11main_i2 ) ( * Nl11main_k2 1 ) ) ( * Nl11main_b2 2 ) ) main_i ) ( * ( + ( + ( + 0 Nl11main_j2 ) ( * Nl11main_k2 1 ) ) ( * Nl11main_b2 2 ) ) main_j ) ( * ( + 0 Nl11main_a2 ) main_a ) ) 0 ) ( <= ( + ( + ( + ( + Nl11CT3 ( * Nl11main_k3 3 ) ) ( * Nl11main_l3 0 ) ) ( * Nl11main_b3 7 ) ) ( * ( + ( + ( + 0 Nl11main_i3 ) ( * Nl11main_k3 1 ) ) ( * Nl11main_b3 2 ) ) main_i ) ( * ( + ( + ( + 0 Nl11main_j3 ) ( * Nl11main_k3 1 ) ) ( * Nl11main_b3 2 ) ) main_j ) ( * ( + 0 Nl11main_a3 ) main_a ) ) 0 ) ) false ) ))
(check-sat)
(exit)
